
******************************************************************************
This program contains Ipopt, a library for large-scale nonlinear optimization.
 Ipopt is released as open source code under the Eclipse Public License (EPL).
         For more information visit http://projects.coin-or.org/Ipopt
******************************************************************************

This is Ipopt version 3.12.6, running with linear solver ma57.

Number of nonzeros in equality constraint Jacobian...:       76
Number of nonzeros in inequality constraint Jacobian.:       52
Number of nonzeros in Lagrangian Hessian.............:      114

Total number of variables............................:       60
                     variables with only lower bounds:       60
                variables with lower and upper bounds:        0
                     variables with only upper bounds:        0
Total number of equality constraints.................:       20
Total number of inequality constraints...............:        9
        inequality constraints with only lower bounds:        0
   inequality constraints with lower and upper bounds:        0
        inequality constraints with only upper bounds:        9

iter    objective    inf_pr   inf_du lg(mu)  ||d||  lg(rg) alpha_du alpha_pr  ls
   0  1.0999989e+00 3.31e+00 4.80e+00  -1.0 0.00e+00    -  0.00e+00 0.00e+00   0
   1  1.8305963e+00 3.27e+00 5.15e+00  -1.0 5.01e+00    -  7.47e-03 1.23e-02f  1
   2  7.6062312e+00 2.92e+00 6.30e+00  -1.0 6.36e+00    -  1.90e-02 1.07e-01f  1
   3  7.5006958e+00 2.73e+00 5.87e+00  -1.0 7.83e+00    -  6.91e-02 6.40e-02f  1
   4  1.1155612e+01 2.10e+00 5.04e+00  -1.0 7.53e+00    -  7.46e-02 2.33e-01h  1
   5  1.1579478e+01 1.71e+00 3.66e+00  -1.0 6.53e+00    -  3.37e-01 1.83e-01f  1
   6  1.8783566e+01 1.39e+00 3.23e+00  -1.0 5.41e+00    -  1.07e-01 1.86e-01h  1
   7  2.6424736e+01 1.13e+00 3.60e+00  -1.0 5.61e+00    -  9.64e-02 1.92e-01h  1
   8  3.1126809e+01 9.53e-01 1.85e+00  -1.0 2.51e+00    -  4.80e-01 1.55e-01h  1
   9  3.9689225e+01 6.68e-01 1.31e+00  -1.0 1.89e+00    -  2.48e-01 2.98e-01h  1
iter    objective    inf_pr   inf_du lg(mu)  ||d||  lg(rg) alpha_du alpha_pr  ls
  10  5.7754585e+01 1.33e-01 4.75e+00  -1.0 1.30e+00    -  2.04e-01 8.01e-01h  1
  11  5.9122831e+01 9.24e-02 2.15e+00  -1.0 5.07e-01    -  3.85e-01 3.06e-01h  1
  12  6.2791248e+01 8.88e-16 3.87e-02  -1.0 2.86e-01    -  9.91e-01 1.00e+00h  1
  13  6.2738315e+01 8.88e-16 1.68e-03  -1.0 3.30e-02    -  1.00e+00 1.00e+00h  1
  14  5.9197995e+01 5.13e-16 7.44e-02  -2.5 2.43e-01    -  8.42e-01 9.32e-01f  1
  15  5.8895370e+01 4.44e-16 1.11e-03  -2.5 4.53e-02    -  1.00e+00 1.00e+00f  1
  16  5.8796099e+01 4.44e-16 4.87e-04  -3.8 5.04e-03    -  9.98e-01 1.00e+00f  1
  17  5.8790170e+01 4.44e-16 3.13e-08  -5.7 7.15e-04    -  1.00e+00 1.00e+00f  1
  18  5.8790098e+01 8.88e-16 2.35e-11  -8.6 5.23e-06    -  1.00e+00 1.00e+00h  1

Number of Iterations....: 18

                                   (scaled)                 (unscaled)
Objective...............:   5.8790098370392329e+01    5.8790098370392329e+01
Dual infeasibility......:   2.3467921041074176e-11    2.3467921041074176e-11
Constraint violation....:   8.8817841970012523e-16    8.8817841970012523e-16
Complementarity.........:   2.5964731981212838e-09    2.5964731981212838e-09
Overall NLP error.......:   2.5964731981212838e-09    2.5964731981212838e-09


Number of objective function evaluations             = 19
Number of objective gradient evaluations             = 19
Number of equality constraint evaluations            = 19
Number of inequality constraint evaluations          = 19
Number of equality constraint Jacobian evaluations   = 19
Number of inequality constraint Jacobian evaluations = 19
Number of Lagrangian Hessian evaluations             = 18
Total CPU secs in IPOPT (w/o function evaluations)   =      0.013
Total CPU secs in NLP function evaluations           =      0.000

EXIT: Optimal Solution Found.

************************ CUTEst statistics ************************


 Package used            :  IPOPT
 Problem                 :  PRODPL0   
 # variables             =              60
 # constraints           =              29
 # objective functions   =        0.3900000E+02
 # objective gradients   =        0.2000000E+02
 # objective Hessians    =        0.1900000E+02
 # Hessian-vector prdct  =        0.0000000E+00
 # constraints functions =        0.4000000E+02
 # constraints gradients =        0.2100000E+02
 # constraints Hessians  =        0.1900000E+02
 Exit code               =               0
 Final f                 =   0.5879010E+02
 Set up time             =            0.00 seconds
 Solve time              =            0.03 seconds


******************************************************************

System Time =       0.0080000004 s.
